c Generated map
c Size: 10 * 10, weights in range: 1 to 10, walls: True, with ratio 0.05
c dim 4 of 6
c
p sp 100 160
c graph contains 100 nodes and 160 arcs
c
a 1 11 5
a 11 1 5
a 1 2 4
a 2 1 4
a 2 12 5
a 12 2 5
a 2 3 9
a 3 2 9
a 3 13 3
a 13 3 3
a 3 4 3
a 4 3 3
a 4 14 4
a 14 4 4
a 4 5 4
a 5 4 4
a 5 15 7
a 15 5 7
a 5 6 5
a 6 5 5
a 6 16 2
a 16 6 2
a 6 7 10
a 7 6 10
a 7 17 6
a 17 7 6
a 7 8 6
a 8 7 6
a 8 18 3
a 18 8 3
a 8 9 1
a 9 8 1
a 9 19 4
a 19 9 4
a 9 10 3
a 10 9 3
a 10 20 5
a 20 10 5
a 11 21 4
a 21 11 4
a 11 12 1
a 12 11 1
a 12 22 2
a 22 12 2
a 12 13 7
a 13 12 7
a 13 23 5
a 23 13 5
a 13 14 10
a 14 13 10
a 14 24 4
a 24 14 4
a 14 15 6
a 15 14 6
a 15 25 9
a 25 15 9
a 15 16 7
a 16 15 7
a 16 17 1
a 17 16 1
a 17 27 3
a 27 17 3
a 17 18 3
a 18 17 3
a 18 28 10
a 28 18 10
a 18 19 9
a 19 18 9
a 19 20 6
a 20 19 6
a 20 30 2
a 30 20 2
a 21 31 6
a 31 21 6
a 21 22 10
a 22 21 10
a 22 32 8
a 32 22 8
a 22 23 7
a 23 22 7
a 23 33 9
a 33 23 9
a 23 24 9
a 24 23 9
a 24 34 8
a 34 24 8
a 24 25 1
a 25 24 1
a 25 35 5
a 35 25 5
a 27 37 5
a 37 27 5
a 27 28 10
a 28 27 10
a 28 38 6
a 38 28 6
a 30 40 9
a 40 30 9
a 31 41 9
a 41 31 9
a 31 32 6
a 32 31 6
a 32 33 5
a 33 32 5
a 33 43 5
a 43 33 5
a 33 34 5
a 34 33 5
a 34 44 8
a 44 34 8
a 34 35 10
a 35 34 10
a 35 45 5
a 45 35 5
a 35 36 3
a 36 35 3
a 36 46 5
a 46 36 5
a 36 37 4
a 37 36 4
a 37 47 8
a 47 37 8
a 37 38 1
a 38 37 1
a 38 48 9
a 48 38 9
a 38 39 8
a 39 38 8
a 39 49 10
a 49 39 10
a 39 40 9
a 40 39 9
a 40 50 10
a 50 40 10
a 41 51 6
a 51 41 6
a 43 53 10
a 53 43 10
a 43 44 1
a 44 43 1
a 44 54 4
a 54 44 4
a 44 45 7
a 45 44 7
a 45 55 4
a 55 45 4
a 45 46 2
a 46 45 2
a 46 56 8
a 56 46 8
a 46 47 8
a 47 46 8
a 47 57 1
a 57 47 1
a 47 48 8
a 48 47 8
a 48 58 9
a 58 48 9
a 48 49 6
a 49 48 6
a 49 50 5
a 50 49 5
a 50 60 5
a 60 50 5
a 51 61 9
a 61 51 9
a 51 52 8
a 52 51 8
a 52 62 1
a 62 52 1
a 52 53 6
a 53 52 6
a 53 63 1
a 63 53 1
a 53 54 10
a 54 53 10
a 54 64 8
a 64 54 8
a 54 55 4
a 55 54 4
a 55 65 1
a 65 55 1
a 55 56 8
a 56 55 8
a 56 66 7
a 66 56 7
a 56 57 10
a 57 56 10
a 57 67 1
a 67 57 1
a 57 58 9
a 58 57 9
a 58 68 9
a 68 58 9
a 60 70 7
a 70 60 7
a 61 71 9
a 71 61 9
a 61 62 4
a 62 61 4
a 62 72 6
a 72 62 6
a 62 63 9
a 63 62 9
a 63 73 4
a 73 63 4
a 63 64 8
a 64 63 8
a 64 74 8
a 74 64 8
a 64 65 5
a 65 64 5
a 65 75 10
a 75 65 10
a 65 66 2
a 66 65 2
a 66 76 8
a 76 66 8
a 66 67 8
a 67 66 8
a 67 77 6
a 77 67 6
a 67 68 9
a 68 67 9
a 68 78 9
a 78 68 9
a 68 69 3
a 69 68 3
a 69 79 8
a 79 69 8
a 69 70 7
a 70 69 7
a 70 80 9
a 80 70 9
a 71 81 8
a 81 71 8
a 71 72 10
a 72 71 10
a 72 82 6
a 82 72 6
a 72 73 7
a 73 72 7
a 73 83 4
a 83 73 4
a 73 74 5
a 74 73 5
a 74 84 9
a 84 74 9
a 74 75 5
a 75 74 5
a 75 85 3
a 85 75 3
a 75 76 7
a 76 75 7
a 76 86 8
a 86 76 8
a 76 77 9
a 77 76 9
a 77 78 10
a 78 77 10
a 78 88 6
a 88 78 6
a 78 79 1
a 79 78 1
a 79 89 3
a 89 79 3
a 79 80 8
a 80 79 8
a 80 90 8
a 90 80 8
a 81 91 7
a 91 81 7
a 81 82 3
a 82 81 3
a 82 92 10
a 92 82 10
a 82 83 4
a 83 82 4
a 83 93 6
a 93 83 6
a 83 84 7
a 84 83 7
a 84 94 1
a 94 84 1
a 84 85 3
a 85 84 3
a 85 95 7
a 95 85 7
a 85 86 4
a 86 85 4
a 86 96 1
a 96 86 1
a 88 98 7
a 98 88 7
a 88 89 2
a 89 88 2
a 89 99 6
a 99 89 6
a 89 90 6
a 90 89 6
a 90 100 3
a 100 90 3
a 91 92 7
a 92 91 7
a 92 93 2
a 93 92 2
a 93 94 8
a 94 93 8
a 94 95 8
a 95 94 8
a 95 96 1
a 96 95 1
a 96 97 4
a 97 96 4
a 97 98 2
a 98 97 2
a 98 99 8
a 99 98 8
a 99 100 9
a 100 99 9
